&GLOBAL
PROJECT DPGEN
&END GLOBAL
&FORCE_EVAL
METHOD QS
STRESS_TENSOR ANALYTICAL
&DFT
BASIS_SET_FILE_NAME BASIS_MOLOPT
POTENTIAL_FILE_NAME GTH_POTENTIALS
CHARGE 0
UKS F
MULTIPLICITY 1
&MGRID
CUTOFF 600
REL_CUTOFF 50
NGRIDS 4
&END MGRID
&QS
EPS_DEFAULT 1e-12
&END QS
&SCF
SCF_GUESS ATOMIC
EPS_SCF 1e-06
MAX_SCF 50
&END SCF
&XC
&XC_FUNCTIONAL PBE
&END XC_FUNCTIONAL
&END XC
&END DFT
&SUBSYS
@include coord_n_cell.inc
&KIND N
BASIS_SET DZVP-MOLOPT-GTH
POTENTIAL GTH-PBE-q5
&END KIND
&KIND C
BASIS_SET DZVP-MOLOPT-GTH
POTENTIAL GTH-PBE-q4
&END KIND
&KIND H
BASIS_SET DZVP-MOLOPT-GTH
POTENTIAL GTH-PBE-q1
&END KIND
&END SUBSYS
&PRINT
&FORCES ON
&END FORCES
&STRESS_TENSOR ON
&END STRESS_TENSOR
&END PRINT
&END FORCE_EVAL